minizinc/sudoku_problems2/sudoku_p71.dzn
%
% sudoku_p71.dzn
% See http://www.hakank.org/minizinc/sudoku_gcc.mzn
% 
% This problem is problem 71 from
% Gecode's sudoku.cpp
% http://www.gecode.org/gecode-doc-latest/sudoku_8cpp-source.html
% 
x = array2d(1..n, 1..n, [   
% http://janko.at/Raetsel/Sudoku/518.a.htm
% 71
  _,  _,  _,  8,  4,  _,  _,  _,  _,  _,  _, 13,  _,  1, 15,  7,
  _,  6,  _, 12,  _,  _, 10,  _,  4, 16,  _,  _,  _,  _,  _,  9,
  _,  _,  9,  4,  5,  _, 16,  _,  8,  _, 15,  _,  _,  3, 10,  _,
  _,  _,  _,  7, 12, 15, 13,  2,  _,  3,  _,  _,  _, 14,  _, 16,
  _,  _,  6, 11,  _,  _,  5,  8,  _,  _, 16,  _,  _,  _,  _,  _,
  8,  _,  7,  _,  _, 16,  _, 12,  9,  _,  4, 10,  1,  _,  _, 14,
 12,  _,  _, 14, 10,  3,  _,  9,  _,  _,  _,  5,  _, 16, 13,  _,
  _, 15,  _,  _,  _,  2,  _,  _,  _,  _,  _, 11,  3,  _,  8, 10,
 10, 11,  _,  6, 15,  _,  _,  _,  _,  _, 12,  _,  _,  _,  9,  _,
  _,  7, 14,  _, 11,  _,  _,  _,  5,  _,  1,  6, 16,  _,  _,  3,
  1,  _,  _, 16,  7,  9,  _,  3, 10,  _, 13,  _,  _, 12,  _,  5,
  _,  _,  _,  _,  _,  1,  _,  _,  7, 14,  _,  _, 10, 11,  _,  _,
  3,  _,  4,  _,  _,  _,  8,  _, 14,  7,  9,  2, 11,  _,  _,  _,
  _, 14,  8,  _,  _, 13,  _, 11,  _, 10,  _,  3,  5,  9,  _,  _,
  5,  _,  _,  _,  _,  _,  1, 10,  _, 13,  _,  _, 14,  _,  3,  _,
  6,  9, 13,  _,  2,  _,  _,  _,  _,  _,  _, 12,  7,  _,  _,  _
]);

n = 16;


